5
13
0 63 67 64 26 56 14 19 69 29 20 1 72
12
0 41 40 42 55 23 17 54 24 9 10 22
19
0 5 28 51 53 7 45 33 3 74 75 66 25 52 65 57 16 50 32
17
0 21 60 27 46 68 59 70 35 36 4 47 12 13 44 73 61
19
0 48 43 49 31 8 38 71 30 37 58 18 34 6 11 39 2 15 62
